0 0 2 0
1 0 1 0
2 0 2 1
1 1 2 8
2 1 3 6
5 0 1 8
4 0 2 13
3 0 1 11
0 1 0 1
3 1 0 16
5 1 3 11
0 2 1 16
3 2 2 22
3 3 3 27
4 1 1 22
2 2 5 10
2 3 0 21
1 2 4 13
5 2 5 18
5 3 0 30
4 2 4 25
2 4 1 30
1 3 5 27
1 4 0 40
3 4 4 30
0 3 3 30
2 5 4 38
0 4 5 37
5 4 4 45
0 5 4 49
4 3 5 40
4 4 0 50
3 5 5 44
1 5 3 50
4 5 3 54
5 5 2 49
